outputs/case_235.model.txt
accounting_year = 106
application_documents_submitted = False
force_majeure_occurred = False
quarterly_report_submission_days = 0
special_circumstances_approved_by_authority = False
board_supervisors_term_expired = False
financial_institution_taken_over = False
auditor_suspended_and_no_successor = False
material_event_occurred = True
annual_report_submission_days = 0
annual_report_inconsistency_reported_flag = True
annual_meeting_days_after_fiscal_year_end = 0
monthly_operating_report_submission_day = 0
stock_listed_or_traded = False
annual_report_signed_by_ceo_cfo_accounting = True
unlisted_unot_taipei_stock_exchange = False
exempt_first_and_third_quarter_reports = False
special_extension_annual_report = False
annual_report_approved_by_supervisors = True
annual_report_approved_by_board = True
quarterly_report_compliance = True
days_since_event = 0
days_until_report_deadline = 0
extension_application_requirements = False
annual_report_compliance = True
paid_in_capital = 0
large_capital_annual_report_deadline = False
second_listing_company = False
extension_application_eligibility = False
board_and_supervisors_dismissed = False
annual_report_audited_by_cpa = True
quarterly_report_reported_to_board = True
quarterly_report_signed_by_ceo_cfo_accounting = True
extension_period_days = 0
extension_period_limit = 1
monthly_operating_report_compliance = True
annual_meeting_held = True
annual_report_inconsistency_reported = True
special_circumstances_exemption = False
penalty = False
first_listing_company = False
second_quarter_report_audited = False
second_quarter_report_approved_by_board = False
second_quarter_report_approved_by_supervisors = False
second_quarter_report_submission_days = 0
first_listing_second_quarter_report_rule = False
annual_consolidated_report_submission_days = 0
exempt_monthly_operating_report = False
second_listing_company_report_rules = False
material_event_reported = True
significant_memo_or_business_change = False
change_of_auditor_not_internal = False
severe_production_reduction_or_asset_lease = False
change_of_ceo_or_major_board_members = False
court_prohibition_on_stock_transfer = False
litigation_or_administrative_action_impact = False
other_major_events_affecting_continuity = False
insufficient_deposit_or_bounced_check = False
company_law_article_185_events = False
material_event_definition = False
quarterly_report_reviewed_by_cpa = True
company_in_reorganization = False
reorganization_period_authority = False